20
5
518223
0
0
34 48 49 45 48
1
0
38 48 47 46 47
2
0
36 47 49 47 54
3
0
38 44 47 48 49
4
0
37 47 46 45 51
5
0
34 46 49 48 48
6
0
36 46 49 46 51
7
0
36 47 49 48 54
8
0
33 44 52 47 49
9
0
37 52 46 49 52
10
0
37 45 43 47 56
11
0
36 45 46 47 54
12
0
37 48 48 47 51
13
0
35 49 47 51 50
14
0
34 49 48 47 50
15
0
37 48 49 49 50
16
0
34 46 47 45 54
17
0
37 48 52 45 50
18
0
35 47 50 48 51
19
0
37 49 48 49 50
